NAME : berlin52-R-3-0-a.12765.tour
COMMENT : Length = 12765
COMMENT : Found by LKH-3 [Keld Helsgaun] Tue Jul 30 13:14:22 2024
TYPE : TOUR
DIMENSION : 52
TOUR_SECTION
1
35
39
44
16
50
29
26
14
11
51
5
9
8
18
31
17
42
7
2
30
3
41
45
36
34
37
38
6
25
4
33
28
27
47
13
52
12
46
48
24
40
15
43
10
19
32
49
22
21
23
20
-1
EOF
